\ENCODING=ISO-8859-1
\Problem name: IloCplex

Minimize
 obj: lambda + id1931
Subject To
 id655:  lambda <= 12
 id657:  c0 - c1 + 12 z10 >= 2
 id660:  - c0 + c1 - 12 z10 >= -10
 id661:  c0 - c2 + 12 z20 >= 1
 id664:  - c0 + c2 - 12 z20 >= -11
 id665:  c1 - c2 + 12 z21 >= 2
 id668:  - c1 + c2 - 12 z21 >= -10
 id669:  c0 - c3 + 12 z30 >= 0
 id672:  - c0 + c3 - 12 z30 >= -12
 id673:  c1 - c3 + 12 z31 >= 1
 id676:  - c1 + c3 - 12 z31 >= -11
 id677:  c2 - c3 + 12 z32 >= 2
 id680:  - c2 + c3 - 12 z32 >= -10
 id681:  c0 - c4 + 12 z40 >= 0
 id684:  - c0 + c4 - 12 z40 >= -12
 id685:  c1 - c4 + 12 z41 >= 0
 id688:  - c1 + c4 - 12 z41 >= -12
 id689:  c2 - c4 + 12 z42 >= 1
 id692:  - c2 + c4 - 12 z42 >= -11
 id693:  c3 - c4 + 12 z43 >= 2
 id696:  - c3 + c4 - 12 z43 >= -10
 id697:  c0 - c5 + 12 z50 >= 2
 id700:  - c0 + c5 - 12 z50 >= -10
 id701:  c1 - c5 + 12 z51 >= 1.5857864376269
 id704:  - c1 + c5 - 12 z51 >= -10.4142135623731
 id705:  c2 - c5 + 12 z52 >= 0.76393202250021
 id708:  - c2 + c5 - 12 z52 >= -11.2360679774998
 id709:  c3 - c5 + 12 z53 >= 0
 id712:  - c3 + c5 - 12 z53 >= -12
 id713:  c4 - c5 + 12 z54 >= 0
 id716:  - c4 + c5 - 12 z54 >= -12
 id717:  c0 - c6 + 12 z60 >= 1.5857864376269
 id720:  - c0 + c6 - 12 z60 >= -10.4142135623731
 id721:  c1 - c6 + 12 z61 >= 2
 id724:  - c1 + c6 - 12 z61 >= -10
 id725:  c2 - c6 + 12 z62 >= 1.5857864376269
 id728:  - c2 + c6 - 12 z62 >= -10.4142135623731
 id729:  c3 - c6 + 12 z63 >= 0.76393202250021
 id732:  - c3 + c6 - 12 z63 >= -11.2360679774998
 id733:  c4 - c6 + 12 z64 >= 0
 id736:  - c4 + c6 - 12 z64 >= -12
 id737:  c5 - c6 + 12 z65 >= 2
 id740:  - c5 + c6 - 12 z65 >= -10
 id741:  c0 - c7 + 12 z70 >= 0.76393202250021
 id744:  - c0 + c7 - 12 z70 >= -11.2360679774998
 id745:  c1 - c7 + 12 z71 >= 1.5857864376269
 id748:  - c1 + c7 - 12 z71 >= -10.4142135623731
 id749:  c2 - c7 + 12 z72 >= 2
 id752:  - c2 + c7 - 12 z72 >= -10
 id753:  c3 - c7 + 12 z73 >= 1.5857864376269
 id756:  - c3 + c7 - 12 z73 >= -10.4142135623731
 id757:  c4 - c7 + 12 z74 >= 0.76393202250021
 id760:  - c4 + c7 - 12 z74 >= -11.2360679774998
 id761:  c5 - c7 + 12 z75 >= 1
 id764:  - c5 + c7 - 12 z75 >= -11
 id765:  c6 - c7 + 12 z76 >= 2
 id768:  - c6 + c7 - 12 z76 >= -10
 id769:  c0 - c8 + 12 z80 >= 0
 id772:  - c0 + c8 - 12 z80 >= -12
 id773:  c1 - c8 + 12 z81 >= 0.76393202250021
 id776:  - c1 + c8 - 12 z81 >= -11.2360679774998
 id777:  c2 - c8 + 12 z82 >= 1.5857864376269
 id780:  - c2 + c8 - 12 z82 >= -10.4142135623731
 id781:  c3 - c8 + 12 z83 >= 2
 id784:  - c3 + c8 - 12 z83 >= -10
 id785:  c4 - c8 + 12 z84 >= 1.5857864376269
 id788:  - c4 + c8 - 12 z84 >= -10.4142135623731
 id789:  c5 - c8 + 12 z85 >= 0
 id792:  - c5 + c8 - 12 z85 >= -12
 id793:  c6 - c8 + 12 z86 >= 1
 id796:  - c6 + c8 - 12 z86 >= -11
 id797:  c7 - c8 + 12 z87 >= 2
 id800:  - c7 + c8 - 12 z87 >= -10
 id801:  c0 - c9 + 12 z90 >= 0
 id804:  - c0 + c9 - 12 z90 >= -12
 id805:  c1 - c9 + 12 z91 >= 0
 id808:  - c1 + c9 - 12 z91 >= -12
 id809:  c2 - c9 + 12 z92 >= 0.76393202250021
 id812:  - c2 + c9 - 12 z92 >= -11.2360679774998
 id813:  c3 - c9 + 12 z93 >= 1.5857864376269
 id816:  - c3 + c9 - 12 z93 >= -10.4142135623731
 id817:  c4 - c9 + 12 z94 >= 2
 id820:  - c4 + c9 - 12 z94 >= -10
 id821:  c5 - c9 + 12 z95 >= 0
 id824:  - c5 + c9 - 12 z95 >= -12
 id825:  c6 - c9 + 12 z96 >= 0
 id828:  - c6 + c9 - 12 z96 >= -12
 id829:  c7 - c9 + 12 z97 >= 1
 id832:  - c7 + c9 - 12 z97 >= -11
 id833:  c8 - c9 + 12 z98 >= 2
 id836:  - c8 + c9 - 12 z98 >= -10
 id837:  c0 - c10 + 12 z100 >= 1
 id840:  - c0 + c10 - 12 z100 >= -11
 id841:  c1 - c10 + 12 z101 >= 0.76393202250021
 id844:  - c1 + c10 - 12 z101 >= -11.2360679774998
 id845:  c2 - c10 + 12 z102 >= 0.17157287525381
 id848:  - c2 + c10 - 12 z102 >= -11.8284271247462
 id849:  c3 - c10 + 12 z103 >= 0
 id852:  - c3 + c10 - 12 z103 >= -12
 id853:  c4 - c10 + 12 z104 >= 0
 id856:  - c4 + c10 - 12 z104 >= -12
 id857:  c5 - c10 + 12 z105 >= 2
 id860:  - c5 + c10 - 12 z105 >= -10
 id861:  c6 - c10 + 12 z106 >= 1.5857864376269
 id864:  - c6 + c10 - 12 z106 >= -10.4142135623731
 id865:  c7 - c10 + 12 z107 >= 0.76393202250021
 id868:  - c7 + c10 - 12 z107 >= -11.2360679774998
 id869:  c8 - c10 + 12 z108 >= 0
 id872:  - c8 + c10 - 12 z108 >= -12
 id873:  c9 - c10 + 12 z109 >= 0
 id876:  - c9 + c10 - 12 z109 >= -12
 id877:  c0 - c11 + 12 z110 >= 0.76393202250021
 id880:  - c0 + c11 - 12 z110 >= -11.2360679774998
 id881:  c1 - c11 + 12 z111 >= 1
 id884:  - c1 + c11 - 12 z111 >= -11
 id885:  c2 - c11 + 12 z112 >= 0.76393202250021
 id888:  - c2 + c11 - 12 z112 >= -11.2360679774998
 id889:  c3 - c11 + 12 z113 >= 0.17157287525381
 id892:  - c3 + c11 - 12 z113 >= -11.8284271247462
 id893:  c4 - c11 + 12 z114 >= 0
 id896:  - c4 + c11 - 12 z114 >= -12
 id897:  c5 - c11 + 12 z115 >= 1.5857864376269
 id900:  - c5 + c11 - 12 z115 >= -10.4142135623731
 id901:  c6 - c11 + 12 z116 >= 2
 id904:  - c6 + c11 - 12 z116 >= -10
 id905:  c7 - c11 + 12 z117 >= 1.5857864376269
 id908:  - c7 + c11 - 12 z117 >= -10.4142135623731
 id909:  c8 - c11 + 12 z118 >= 0.76393202250021
 id912:  - c8 + c11 - 12 z118 >= -11.2360679774998
 id913:  c9 - c11 + 12 z119 >= 0
 id916:  - c9 + c11 - 12 z119 >= -12
 id917:  c10 - c11 + 12 z1110 >= 2
 id920:  - c10 + c11 - 12 z1110 >= -10
 id921:  c0 - c12 + 12 z120 >= 0.17157287525381
 id924:  - c0 + c12 - 12 z120 >= -11.8284271247462
 id925:  c1 - c12 + 12 z121 >= 0.76393202250021
 id928:  - c1 + c12 - 12 z121 >= -11.2360679774998
 id929:  c2 - c12 + 12 z122 >= 1
 id932:  - c2 + c12 - 12 z122 >= -11
 id933:  c3 - c12 + 12 z123 >= 0.76393202250021
 id936:  - c3 + c12 - 12 z123 >= -11.2360679774998
 id937:  c4 - c12 + 12 z124 >= 0.17157287525381
 id940:  - c4 + c12 - 12 z124 >= -11.8284271247462
 id941:  c5 - c12 + 12 z125 >= 0.76393202250021
 id944:  - c5 + c12 - 12 z125 >= -11.2360679774998
 id945:  c6 - c12 + 12 z126 >= 1.5857864376269
 id948:  - c6 + c12 - 12 z126 >= -10.4142135623731
 id949:  c7 - c12 + 12 z127 >= 2
 id952:  - c7 + c12 - 12 z127 >= -10
 id953:  c8 - c12 + 12 z128 >= 1.5857864376269
 id956:  - c8 + c12 - 12 z128 >= -10.4142135623731
 id957:  c9 - c12 + 12 z129 >= 0.76393202250021
 id960:  - c9 + c12 - 12 z129 >= -11.2360679774998
 id961:  c10 - c12 + 12 z1210 >= 1
 id964:  - c10 + c12 - 12 z1210 >= -11
 id965:  c11 - c12 + 12 z1211 >= 2
 id968:  - c11 + c12 - 12 z1211 >= -10
 id969:  c0 - c13 + 12 z130 >= 0
 id972:  - c0 + c13 - 12 z130 >= -12
 id973:  c1 - c13 + 12 z131 >= 0.17157287525381
 id976:  - c1 + c13 - 12 z131 >= -11.8284271247462
 id977:  c2 - c13 + 12 z132 >= 0.76393202250021
 id980:  - c2 + c13 - 12 z132 >= -11.2360679774998
 id981:  c3 - c13 + 12 z133 >= 1
 id984:  - c3 + c13 - 12 z133 >= -11
 id985:  c4 - c13 + 12 z134 >= 0.76393202250021
 id988:  - c4 + c13 - 12 z134 >= -11.2360679774998
 id989:  c5 - c13 + 12 z135 >= 0
 id992:  - c5 + c13 - 12 z135 >= -12
 id993:  c6 - c13 + 12 z136 >= 0.76393202250021
 id996:  - c6 + c13 - 12 z136 >= -11.2360679774998
 id997:  c7 - c13 + 12 z137 >= 1.5857864376269
 id1000: - c7 + c13 - 12 z137 >= -10.4142135623731
 id1001: c8 - c13 + 12 z138 >= 2
 id1004: - c8 + c13 - 12 z138 >= -10
 id1005: c9 - c13 + 12 z139 >= 1.5857864376269
 id1008: - c9 + c13 - 12 z139 >= -10.4142135623731
 id1009: c10 - c13 + 12 z1310 >= 0
 id1012: - c10 + c13 - 12 z1310 >= -12
 id1013: c11 - c13 + 12 z1311 >= 1
 id1016: - c11 + c13 - 12 z1311 >= -11
 id1017: c12 - c13 + 12 z1312 >= 2
 id1020: - c12 + c13 - 12 z1312 >= -10
 id1021: c0 - c14 + 12 z140 >= 0
 id1024: - c0 + c14 - 12 z140 >= -12
 id1025: c1 - c14 + 12 z141 >= 0
 id1028: - c1 + c14 - 12 z141 >= -12
 id1029: c2 - c14 + 12 z142 >= 0.17157287525381
 id1032: - c2 + c14 - 12 z142 >= -11.8284271247462
 id1033: c3 - c14 + 12 z143 >= 0.76393202250021
 id1036: - c3 + c14 - 12 z143 >= -11.2360679774998
 id1037: c4 - c14 + 12 z144 >= 1
 id1040: - c4 + c14 - 12 z144 >= -11
 id1041: c5 - c14 + 12 z145 >= 0
 id1044: - c5 + c14 - 12 z145 >= -12
 id1045: c6 - c14 + 12 z146 >= 0
 id1048: - c6 + c14 - 12 z146 >= -12
 id1049: c7 - c14 + 12 z147 >= 0.76393202250021
 id1052: - c7 + c14 - 12 z147 >= -11.2360679774998
 id1053: c8 - c14 + 12 z148 >= 1.5857864376269
 id1056: - c8 + c14 - 12 z148 >= -10.4142135623731
 id1057: c9 - c14 + 12 z149 >= 2
 id1060: - c9 + c14 - 12 z149 >= -10
 id1061: c10 - c14 + 12 z1410 >= 0
 id1064: - c10 + c14 - 12 z1410 >= -12
 id1065: c11 - c14 + 12 z1411 >= 0
 id1068: - c11 + c14 - 12 z1411 >= -12
 id1069: c12 - c14 + 12 z1412 >= 1
 id1072: - c12 + c14 - 12 z1412 >= -11
 id1073: c13 - c14 + 12 z1413 >= 2
 id1076: - c13 + c14 - 12 z1413 >= -10
 id1077: c0 - c15 + 12 z150 >= 0
 id1080: - c0 + c15 - 12 z150 >= -12
 id1081: c1 - c15 + 12 z151 >= 0
 id1084: - c1 + c15 - 12 z151 >= -12
 id1085: c2 - c15 + 12 z152 >= 0
 id1088: - c2 + c15 - 12 z152 >= -12
 id1089: c3 - c15 + 12 z153 >= 0
 id1092: - c3 + c15 - 12 z153 >= -12
 id1093: c4 - c15 + 12 z154 >= 0
 id1096: - c4 + c15 - 12 z154 >= -12
 id1097: c5 - c15 + 12 z155 >= 1
 id1100: - c5 + c15 - 12 z155 >= -11
 id1101: c6 - c15 + 12 z156 >= 0.76393202250021
 id1104: - c6 + c15 - 12 z156 >= -11.2360679774998
 id1105: c7 - c15 + 12 z157 >= 0.17157287525381
 id1108: - c7 + c15 - 12 z157 >= -11.8284271247462
 id1109: c8 - c15 + 12 z158 >= 0
 id1112: - c8 + c15 - 12 z158 >= -12
 id1113: c9 - c15 + 12 z159 >= 0
 id1116: - c9 + c15 - 12 z159 >= -12
 id1117: c10 - c15 + 12 z1510 >= 2
 id1120: - c10 + c15 - 12 z1510 >= -10
 id1121: c11 - c15 + 12 z1511 >= 1.5857864376269
 id1124: - c11 + c15 - 12 z1511 >= -10.4142135623731
 id1125: c12 - c15 + 12 z1512 >= 0.76393202250021
 id1128: - c12 + c15 - 12 z1512 >= -11.2360679774998
 id1129: c13 - c15 + 12 z1513 >= 0
 id1132: - c13 + c15 - 12 z1513 >= -12
 id1133: c14 - c15 + 12 z1514 >= 0
 id1136: - c14 + c15 - 12 z1514 >= -12
 id1137: c0 - c16 + 12 z160 >= 0
 id1140: - c0 + c16 - 12 z160 >= -12
 id1141: c1 - c16 + 12 z161 >= 0
 id1144: - c1 + c16 - 12 z161 >= -12
 id1145: c2 - c16 + 12 z162 >= 0
 id1148: - c2 + c16 - 12 z162 >= -12
 id1149: c3 - c16 + 12 z163 >= 0
 id1152: - c3 + c16 - 12 z163 >= -12
 id1153: c4 - c16 + 12 z164 >= 0
 id1156: - c4 + c16 - 12 z164 >= -12
 id1157: c5 - c16 + 12 z165 >= 0.76393202250021
 id1160: - c5 + c16 - 12 z165 >= -11.2360679774998
 id1161: c6 - c16 + 12 z166 >= 1
 id1164: - c6 + c16 - 12 z166 >= -11
 id1165: c7 - c16 + 12 z167 >= 0.76393202250021
 id1168: - c7 + c16 - 12 z167 >= -11.2360679774998
 id1169: c8 - c16 + 12 z168 >= 0.17157287525381
 id1172: - c8 + c16 - 12 z168 >= -11.8284271247462
 id1173: c9 - c16 + 12 z169 >= 0
 id1176: - c9 + c16 - 12 z169 >= -12
 id1177: c10 - c16 + 12 z1610 >= 1.5857864376269
 id1180: - c10 + c16 - 12 z1610 >= -10.4142135623731
 id1181: c11 - c16 + 12 z1611 >= 2
 id1184: - c11 + c16 - 12 z1611 >= -10
 id1185: c12 - c16 + 12 z1612 >= 1.5857864376269
 id1188: - c12 + c16 - 12 z1612 >= -10.4142135623731
 id1189: c13 - c16 + 12 z1613 >= 0.76393202250021
 id1192: - c13 + c16 - 12 z1613 >= -11.2360679774998
 id1193: c14 - c16 + 12 z1614 >= 0
 id1196: - c14 + c16 - 12 z1614 >= -12
 id1197: c15 - c16 + 12 z1615 >= 2
 id1200: - c15 + c16 - 12 z1615 >= -10
 id1201: c0 - c17 + 12 z170 >= 0
 id1204: - c0 + c17 - 12 z170 >= -12
 id1205: c1 - c17 + 12 z171 >= 0
 id1208: - c1 + c17 - 12 z171 >= -12
 id1209: c2 - c17 + 12 z172 >= 0
 id1212: - c2 + c17 - 12 z172 >= -12
 id1213: c3 - c17 + 12 z173 >= 0
 id1216: - c3 + c17 - 12 z173 >= -12
 id1217: c4 - c17 + 12 z174 >= 0
 id1220: - c4 + c17 - 12 z174 >= -12
 id1221: c5 - c17 + 12 z175 >= 0.17157287525381
 id1224: - c5 + c17 - 12 z175 >= -11.8284271247462
 id1225: c6 - c17 + 12 z176 >= 0.76393202250021
 id1228: - c6 + c17 - 12 z176 >= -11.2360679774998
 id1229: c7 - c17 + 12 z177 >= 1
 id1232: - c7 + c17 - 12 z177 >= -11
 id1233: c8 - c17 + 12 z178 >= 0.76393202250021
 id1236: - c8 + c17 - 12 z178 >= -11.2360679774998
 id1237: c9 - c17 + 12 z179 >= 0.17157287525381
 id1240: - c9 + c17 - 12 z179 >= -11.8284271247462
 id1241: c10 - c17 + 12 z1710 >= 0.76393202250021
 id1244: - c10 + c17 - 12 z1710 >= -11.2360679774998
 id1245: c11 - c17 + 12 z1711 >= 1.5857864376269
 id1248: - c11 + c17 - 12 z1711 >= -10.4142135623731
 id1249: c12 - c17 + 12 z1712 >= 2
 id1252: - c12 + c17 - 12 z1712 >= -10
 id1253: c13 - c17 + 12 z1713 >= 1.5857864376269
 id1256: - c13 + c17 - 12 z1713 >= -10.4142135623731
 id1257: c14 - c17 + 12 z1714 >= 0.76393202250021
 id1260: - c14 + c17 - 12 z1714 >= -11.2360679774998
 id1261: c15 - c17 + 12 z1715 >= 1
 id1264: - c15 + c17 - 12 z1715 >= -11
 id1265: c16 - c17 + 12 z1716 >= 2
 id1268: - c16 + c17 - 12 z1716 >= -10
 id1269: c0 - c18 + 12 z180 >= 0
 id1272: - c0 + c18 - 12 z180 >= -12
 id1273: c1 - c18 + 12 z181 >= 0
 id1276: - c1 + c18 - 12 z181 >= -12
 id1277: c2 - c18 + 12 z182 >= 0
 id1280: - c2 + c18 - 12 z182 >= -12
 id1281: c3 - c18 + 12 z183 >= 0
 id1284: - c3 + c18 - 12 z183 >= -12
 id1285: c4 - c18 + 12 z184 >= 0
 id1288: - c4 + c18 - 12 z184 >= -12
 id1289: c5 - c18 + 12 z185 >= 0
 id1292: - c5 + c18 - 12 z185 >= -12
 id1293: c6 - c18 + 12 z186 >= 0.17157287525381
 id1296: - c6 + c18 - 12 z186 >= -11.8284271247462
 id1297: c7 - c18 + 12 z187 >= 0.76393202250021
 id1300: - c7 + c18 - 12 z187 >= -11.2360679774998
 id1301: c8 - c18 + 12 z188 >= 1
 id1304: - c8 + c18 - 12 z188 >= -11
 id1305: c9 - c18 + 12 z189 >= 0.76393202250021
 id1308: - c9 + c18 - 12 z189 >= -11.2360679774998
 id1309: c10 - c18 + 12 z1810 >= 0
 id1312: - c10 + c18 - 12 z1810 >= -12
 id1313: c11 - c18 + 12 z1811 >= 0.76393202250021
 id1316: - c11 + c18 - 12 z1811 >= -11.2360679774998
 id1317: c12 - c18 + 12 z1812 >= 1.5857864376269
 id1320: - c12 + c18 - 12 z1812 >= -10.4142135623731
 id1321: c13 - c18 + 12 z1813 >= 2
 id1324: - c13 + c18 - 12 z1813 >= -10
 id1325: c14 - c18 + 12 z1814 >= 1.5857864376269
 id1328: - c14 + c18 - 12 z1814 >= -10.4142135623731
 id1329: c15 - c18 + 12 z1815 >= 0
 id1332: - c15 + c18 - 12 z1815 >= -12
 id1333: c16 - c18 + 12 z1816 >= 1
 id1336: - c16 + c18 - 12 z1816 >= -11
 id1337: c17 - c18 + 12 z1817 >= 2
 id1340: - c17 + c18 - 12 z1817 >= -10
 id1341: c0 - c19 + 12 z190 >= 0
 id1344: - c0 + c19 - 12 z190 >= -12
 id1345: c1 - c19 + 12 z191 >= 0
 id1348: - c1 + c19 - 12 z191 >= -12
 id1349: c2 - c19 + 12 z192 >= 0
 id1352: - c2 + c19 - 12 z192 >= -12
 id1353: c3 - c19 + 12 z193 >= 0
 id1356: - c3 + c19 - 12 z193 >= -12
 id1357: c4 - c19 + 12 z194 >= 0
 id1360: - c4 + c19 - 12 z194 >= -12
 id1361: c5 - c19 + 12 z195 >= 0
 id1364: - c5 + c19 - 12 z195 >= -12
 id1365: c6 - c19 + 12 z196 >= 0
 id1368: - c6 + c19 - 12 z196 >= -12
 id1369: c7 - c19 + 12 z197 >= 0.17157287525381
 id1372: - c7 + c19 - 12 z197 >= -11.8284271247462
 id1373: c8 - c19 + 12 z198 >= 0.76393202250021
 id1376: - c8 + c19 - 12 z198 >= -11.2360679774998
 id1377: c9 - c19 + 12 z199 >= 1
 id1380: - c9 + c19 - 12 z199 >= -11
 id1381: c10 - c19 + 12 z1910 >= 0
 id1384: - c10 + c19 - 12 z1910 >= -12
 id1385: c11 - c19 + 12 z1911 >= 0
 id1388: - c11 + c19 - 12 z1911 >= -12
 id1389: c12 - c19 + 12 z1912 >= 0.76393202250021
 id1392: - c12 + c19 - 12 z1912 >= -11.2360679774998
 id1393: c13 - c19 + 12 z1913 >= 1.5857864376269
 id1396: - c13 + c19 - 12 z1913 >= -10.4142135623731
 id1397: c14 - c19 + 12 z1914 >= 2
 id1400: - c14 + c19 - 12 z1914 >= -10
 id1401: c15 - c19 + 12 z1915 >= 0
 id1404: - c15 + c19 - 12 z1915 >= -12
 id1405: c16 - c19 + 12 z1916 >= 0
 id1408: - c16 + c19 - 12 z1916 >= -12
 id1409: c17 - c19 + 12 z1917 >= 1
 id1412: - c17 + c19 - 12 z1917 >= -11
 id1413: c18 - c19 + 12 z1918 >= 2
 id1416: - c18 + c19 - 12 z1918 >= -10
 id1417: c0 - c20 + 12 z200 >= 0
 id1420: - c0 + c20 - 12 z200 >= -12
 id1421: c1 - c20 + 12 z201 >= 0
 id1424: - c1 + c20 - 12 z201 >= -12
 id1425: c2 - c20 + 12 z202 >= 0
 id1428: - c2 + c20 - 12 z202 >= -12
 id1429: c3 - c20 + 12 z203 >= 0
 id1432: - c3 + c20 - 12 z203 >= -12
 id1433: c4 - c20 + 12 z204 >= 0
 id1436: - c4 + c20 - 12 z204 >= -12
 id1437: c5 - c20 + 12 z205 >= 0
 id1440: - c5 + c20 - 12 z205 >= -12
 id1441: c6 - c20 + 12 z206 >= 0
 id1444: - c6 + c20 - 12 z206 >= -12
 id1445: c7 - c20 + 12 z207 >= 0
 id1448: - c7 + c20 - 12 z207 >= -12
 id1449: c8 - c20 + 12 z208 >= 0
 id1452: - c8 + c20 - 12 z208 >= -12
 id1453: c9 - c20 + 12 z209 >= 0
 id1456: - c9 + c20 - 12 z209 >= -12
 id1457: c10 - c20 + 12 z2010 >= 1
 id1460: - c10 + c20 - 12 z2010 >= -11
 id1461: c11 - c20 + 12 z2011 >= 0.76393202250021
 id1464: - c11 + c20 - 12 z2011 >= -11.2360679774998
 id1465: c12 - c20 + 12 z2012 >= 0.17157287525381
 id1468: - c12 + c20 - 12 z2012 >= -11.8284271247462
 id1469: c13 - c20 + 12 z2013 >= 0
 id1472: - c13 + c20 - 12 z2013 >= -12
 id1473: c14 - c20 + 12 z2014 >= 0
 id1476: - c14 + c20 - 12 z2014 >= -12
 id1477: c15 - c20 + 12 z2015 >= 2
 id1480: - c15 + c20 - 12 z2015 >= -10
 id1481: c16 - c20 + 12 z2016 >= 1.5857864376269
 id1484: - c16 + c20 - 12 z2016 >= -10.4142135623731
 id1485: c17 - c20 + 12 z2017 >= 0.76393202250021
 id1488: - c17 + c20 - 12 z2017 >= -11.2360679774998
 id1489: c18 - c20 + 12 z2018 >= 0
 id1492: - c18 + c20 - 12 z2018 >= -12
 id1493: c19 - c20 + 12 z2019 >= 0
 id1496: - c19 + c20 - 12 z2019 >= -12
 id1497: c0 - c21 + 12 z210 >= 0
 id1500: - c0 + c21 - 12 z210 >= -12
 id1501: c1 - c21 + 12 z211 >= 0
 id1504: - c1 + c21 - 12 z211 >= -12
 id1505: c2 - c21 + 12 z212 >= 0
 id1508: - c2 + c21 - 12 z212 >= -12
 id1509: c3 - c21 + 12 z213 >= 0
 id1512: - c3 + c21 - 12 z213 >= -12
 id1513: c4 - c21 + 12 z214 >= 0
 id1516: - c4 + c21 - 12 z214 >= -12
 id1517: c5 - c21 + 12 z215 >= 0
 id1520: - c5 + c21 - 12 z215 >= -12
 id1521: c6 - c21 + 12 z216 >= 0
 id1524: - c6 + c21 - 12 z216 >= -12
 id1525: c7 - c21 + 12 z217 >= 0
 id1528: - c7 + c21 - 12 z217 >= -12
 id1529: c8 - c21 + 12 z218 >= 0
 id1532: - c8 + c21 - 12 z218 >= -12
 id1533: c9 - c21 + 12 z219 >= 0
 id1536: - c9 + c21 - 12 z219 >= -12
 id1537: c10 - c21 + 12 z2110 >= 0.76393202250021
 id1540: - c10 + c21 - 12 z2110 >= -11.2360679774998
 id1541: c11 - c21 + 12 z2111 >= 1
 id1544: - c11 + c21 - 12 z2111 >= -11
 id1545: c12 - c21 + 12 z2112 >= 0.76393202250021
 id1548: - c12 + c21 - 12 z2112 >= -11.2360679774998
 id1549: c13 - c21 + 12 z2113 >= 0.17157287525381
 id1552: - c13 + c21 - 12 z2113 >= -11.8284271247462
 id1553: c14 - c21 + 12 z2114 >= 0
 id1556: - c14 + c21 - 12 z2114 >= -12
 id1557: c15 - c21 + 12 z2115 >= 1.5857864376269
 id1560: - c15 + c21 - 12 z2115 >= -10.4142135623731
 id1561: c16 - c21 + 12 z2116 >= 2
 id1564: - c16 + c21 - 12 z2116 >= -10
 id1565: c17 - c21 + 12 z2117 >= 1.5857864376269
 id1568: - c17 + c21 - 12 z2117 >= -10.4142135623731
 id1569: c18 - c21 + 12 z2118 >= 0.76393202250021
 id1572: - c18 + c21 - 12 z2118 >= -11.2360679774998
 id1573: c19 - c21 + 12 z2119 >= 0
 id1576: - c19 + c21 - 12 z2119 >= -12
 id1577: c20 - c21 + 12 z2120 >= 2
 id1580: - c20 + c21 - 12 z2120 >= -10
 id1581: c0 - c22 + 12 z220 >= 0
 id1584: - c0 + c22 - 12 z220 >= -12
 id1585: c1 - c22 + 12 z221 >= 0
 id1588: - c1 + c22 - 12 z221 >= -12
 id1589: c2 - c22 + 12 z222 >= 0
 id1592: - c2 + c22 - 12 z222 >= -12
 id1593: c3 - c22 + 12 z223 >= 0
 id1596: - c3 + c22 - 12 z223 >= -12
 id1597: c4 - c22 + 12 z224 >= 0
 id1600: - c4 + c22 - 12 z224 >= -12
 id1601: c5 - c22 + 12 z225 >= 0
 id1604: - c5 + c22 - 12 z225 >= -12
 id1605: c6 - c22 + 12 z226 >= 0
 id1608: - c6 + c22 - 12 z226 >= -12
 id1609: c7 - c22 + 12 z227 >= 0
 id1612: - c7 + c22 - 12 z227 >= -12
 id1613: c8 - c22 + 12 z228 >= 0
 id1616: - c8 + c22 - 12 z228 >= -12
 id1617: c9 - c22 + 12 z229 >= 0
 id1620: - c9 + c22 - 12 z229 >= -12
 id1621: c10 - c22 + 12 z2210 >= 0.17157287525381
 id1624: - c10 + c22 - 12 z2210 >= -11.8284271247462
 id1625: c11 - c22 + 12 z2211 >= 0.76393202250021
 id1628: - c11 + c22 - 12 z2211 >= -11.2360679774998
 id1629: c12 - c22 + 12 z2212 >= 1
 id1632: - c12 + c22 - 12 z2212 >= -11
 id1633: c13 - c22 + 12 z2213 >= 0.76393202250021
 id1636: - c13 + c22 - 12 z2213 >= -11.2360679774998
 id1637: c14 - c22 + 12 z2214 >= 0.17157287525381
 id1640: - c14 + c22 - 12 z2214 >= -11.8284271247462
 id1641: c15 - c22 + 12 z2215 >= 0.76393202250021
 id1644: - c15 + c22 - 12 z2215 >= -11.2360679774998
 id1645: c16 - c22 + 12 z2216 >= 1.5857864376269
 id1648: - c16 + c22 - 12 z2216 >= -10.4142135623731
 id1649: c17 - c22 + 12 z2217 >= 2
 id1652: - c17 + c22 - 12 z2217 >= -10
 id1653: c18 - c22 + 12 z2218 >= 1.5857864376269
 id1656: - c18 + c22 - 12 z2218 >= -10.4142135623731
 id1657: c19 - c22 + 12 z2219 >= 0.76393202250021
 id1660: - c19 + c22 - 12 z2219 >= -11.2360679774998
 id1661: c20 - c22 + 12 z2220 >= 1
 id1664: - c20 + c22 - 12 z2220 >= -11
 id1665: c21 - c22 + 12 z2221 >= 2
 id1668: - c21 + c22 - 12 z2221 >= -10
 id1669: c0 - c23 + 12 z230 >= 0
 id1672: - c0 + c23 - 12 z230 >= -12
 id1673: c1 - c23 + 12 z231 >= 0
 id1676: - c1 + c23 - 12 z231 >= -12
 id1677: c2 - c23 + 12 z232 >= 0
 id1680: - c2 + c23 - 12 z232 >= -12
 id1681: c3 - c23 + 12 z233 >= 0
 id1684: - c3 + c23 - 12 z233 >= -12
 id1685: c4 - c23 + 12 z234 >= 0
 id1688: - c4 + c23 - 12 z234 >= -12
 id1689: c5 - c23 + 12 z235 >= 0
 id1692: - c5 + c23 - 12 z235 >= -12
 id1693: c6 - c23 + 12 z236 >= 0
 id1696: - c6 + c23 - 12 z236 >= -12
 id1697: c7 - c23 + 12 z237 >= 0
 id1700: - c7 + c23 - 12 z237 >= -12
 id1701: c8 - c23 + 12 z238 >= 0
 id1704: - c8 + c23 - 12 z238 >= -12
 id1705: c9 - c23 + 12 z239 >= 0
 id1708: - c9 + c23 - 12 z239 >= -12
 id1709: c10 - c23 + 12 z2310 >= 0
 id1712: - c10 + c23 - 12 z2310 >= -12
 id1713: c11 - c23 + 12 z2311 >= 0.17157287525381
 id1716: - c11 + c23 - 12 z2311 >= -11.8284271247462
 id1717: c12 - c23 + 12 z2312 >= 0.76393202250021
 id1720: - c12 + c23 - 12 z2312 >= -11.2360679774998
 id1721: c13 - c23 + 12 z2313 >= 1
 id1724: - c13 + c23 - 12 z2313 >= -11
 id1725: c14 - c23 + 12 z2314 >= 0.76393202250021
 id1728: - c14 + c23 - 12 z2314 >= -11.2360679774998
 id1729: c15 - c23 + 12 z2315 >= 0
 id1732: - c15 + c23 - 12 z2315 >= -12
 id1733: c16 - c23 + 12 z2316 >= 0.76393202250021
 id1736: - c16 + c23 - 12 z2316 >= -11.2360679774998
 id1737: c17 - c23 + 12 z2317 >= 1.5857864376269
 id1740: - c17 + c23 - 12 z2317 >= -10.4142135623731
 id1741: c18 - c23 + 12 z2318 >= 2
 id1744: - c18 + c23 - 12 z2318 >= -10
 id1745: c19 - c23 + 12 z2319 >= 1.5857864376269
 id1748: - c19 + c23 - 12 z2319 >= -10.4142135623731
 id1749: c20 - c23 + 12 z2320 >= 0
 id1752: - c20 + c23 - 12 z2320 >= -12
 id1753: c21 - c23 + 12 z2321 >= 1
 id1756: - c21 + c23 - 12 z2321 >= -11
 id1757: c22 - c23 + 12 z2322 >= 2
 id1760: - c22 + c23 - 12 z2322 >= -10
 id1761: c0 - c24 + 12 z240 >= 0
 id1764: - c0 + c24 - 12 z240 >= -12
 id1765: c1 - c24 + 12 z241 >= 0
 id1768: - c1 + c24 - 12 z241 >= -12
 id1769: c2 - c24 + 12 z242 >= 0
 id1772: - c2 + c24 - 12 z242 >= -12
 id1773: c3 - c24 + 12 z243 >= 0
 id1776: - c3 + c24 - 12 z243 >= -12
 id1777: c4 - c24 + 12 z244 >= 0
 id1780: - c4 + c24 - 12 z244 >= -12
 id1781: c5 - c24 + 12 z245 >= 0
 id1784: - c5 + c24 - 12 z245 >= -12
 id1785: c6 - c24 + 12 z246 >= 0
 id1788: - c6 + c24 - 12 z246 >= -12
 id1789: c7 - c24 + 12 z247 >= 0
 id1792: - c7 + c24 - 12 z247 >= -12
 id1793: c8 - c24 + 12 z248 >= 0
 id1796: - c8 + c24 - 12 z248 >= -12
 id1797: c9 - c24 + 12 z249 >= 0
 id1800: - c9 + c24 - 12 z249 >= -12
 id1801: c10 - c24 + 12 z2410 >= 0
 id1804: - c10 + c24 - 12 z2410 >= -12
 id1805: c11 - c24 + 12 z2411 >= 0
 id1808: - c11 + c24 - 12 z2411 >= -12
 id1809: c12 - c24 + 12 z2412 >= 0.17157287525381
 id1812: - c12 + c24 - 12 z2412 >= -11.8284271247462
 id1813: c13 - c24 + 12 z2413 >= 0.76393202250021
 id1816: - c13 + c24 - 12 z2413 >= -11.2360679774998
 id1817: c14 - c24 + 12 z2414 >= 1
 id1820: - c14 + c24 - 12 z2414 >= -11
 id1821: c15 - c24 + 12 z2415 >= 0
 id1824: - c15 + c24 - 12 z2415 >= -12
 id1825: c16 - c24 + 12 z2416 >= 0
 id1828: - c16 + c24 - 12 z2416 >= -12
 id1829: c17 - c24 + 12 z2417 >= 0.76393202250021
 id1832: - c17 + c24 - 12 z2417 >= -11.2360679774998
 id1833: c18 - c24 + 12 z2418 >= 1.5857864376269
 id1836: - c18 + c24 - 12 z2418 >= -10.4142135623731
 id1837: c19 - c24 + 12 z2419 >= 2
 id1840: - c19 + c24 - 12 z2419 >= -10
 id1841: c20 - c24 + 12 z2420 >= 0
 id1844: - c20 + c24 - 12 z2420 >= -12
 id1845: c21 - c24 + 12 z2421 >= 0
 id1848: - c21 + c24 - 12 z2421 >= -12
 id1849: c22 - c24 + 12 z2422 >= 1
 id1852: - c22 + c24 - 12 z2422 >= -11
 id1853: c23 - c24 + 12 z2423 >= 2
 id1856: - c23 + c24 - 12 z2423 >= -10
 id1854: - lambda + c0 <= 0
 id1857: c0 >= 0
 id1859: - lambda + c1 <= 0
 id1860: c1 >= 0
 id1862: - lambda + c2 <= 0
 id1863: c2 >= 0
 id1865: - lambda + c3 <= 0
 id1866: c3 >= 0
 id1868: - lambda + c4 <= 0
 id1869: c4 >= 0
 id1871: - lambda + c5 <= 0
 id1872: c5 >= 0
 id1874: - lambda + c6 <= 0
 id1875: c6 >= 0
 id1877: - lambda + c7 <= 0
 id1878: c7 >= 0
 id1880: - lambda + c8 <= 0
 id1881: c8 >= 0
 id1883: - lambda + c9 <= 0
 id1884: c9 >= 0
 id1886: - lambda + c10 <= 0
 id1887: c10 >= 0
 id1889: - lambda + c11 <= 0
 id1890: c11 >= 0
 id1892: - lambda + c12 <= 0
 id1893: c12 >= 0
 id1895: - lambda + c13 <= 0
 id1896: c13 >= 0
 id1898: - lambda + c14 <= 0
 id1899: c14 >= 0
 id1901: - lambda + c15 <= 0
 id1902: c15 >= 0
 id1904: - lambda + c16 <= 0
 id1905: c16 >= 0
 id1907: - lambda + c17 <= 0
 id1908: c17 >= 0
 id1910: - lambda + c18 <= 0
 id1911: c18 >= 0
 id1913: - lambda + c19 <= 0
 id1914: c19 >= 0
 id1916: - lambda + c20 <= 0
 id1917: c20 >= 0
 id1919: - lambda + c21 <= 0
 id1920: c21 >= 0
 id1922: - lambda + c22 <= 0
 id1923: c22 >= 0
 id1925: - lambda + c23 <= 0
 id1926: c23 >= 0
 id1928: - lambda + c24 <= 0
 id1929: c24 >= 0
Bounds
      lambda Free
      id1931 = 0
      c0 Free
      c1 Free
 0 <= z10 <= 1
      c2 Free
 0 <= z20 <= 1
 0 <= z21 <= 1
      c3 Free
 0 <= z30 <= 1
 0 <= z31 <= 1
 0 <= z32 <= 1
      c4 Free
 0 <= z40 <= 1
 0 <= z41 <= 1
 0 <= z42 <= 1
 0 <= z43 <= 1
      c5 Free
 0 <= z50 <= 1
 0 <= z51 <= 1
 0 <= z52 <= 1
 0 <= z53 <= 1
 0 <= z54 <= 1
      c6 Free
 0 <= z60 <= 1
 0 <= z61 <= 1
 0 <= z62 <= 1
 0 <= z63 <= 1
 0 <= z64 <= 1
 0 <= z65 <= 1
      c7 Free
 0 <= z70 <= 1
 0 <= z71 <= 1
 0 <= z72 <= 1
 0 <= z73 <= 1
 0 <= z74 <= 1
 0 <= z75 <= 1
 0 <= z76 <= 1
      c8 Free
 0 <= z80 <= 1
 0 <= z81 <= 1
 0 <= z82 <= 1
 0 <= z83 <= 1
 0 <= z84 <= 1
 0 <= z85 <= 1
 0 <= z86 <= 1
 0 <= z87 <= 1
      c9 Free
 0 <= z90 <= 1
 0 <= z91 <= 1
 0 <= z92 <= 1
 0 <= z93 <= 1
 0 <= z94 <= 1
 0 <= z95 <= 1
 0 <= z96 <= 1
 0 <= z97 <= 1
 0 <= z98 <= 1
      c10 Free
 0 <= z100 <= 1
 0 <= z101 <= 1
 0 <= z102 <= 1
 0 <= z103 <= 1
 0 <= z104 <= 1
 0 <= z105 <= 1
 0 <= z106 <= 1
 0 <= z107 <= 1
 0 <= z108 <= 1
 0 <= z109 <= 1
      c11 Free
 0 <= z110 <= 1
 0 <= z111 <= 1
 0 <= z112 <= 1
 0 <= z113 <= 1
 0 <= z114 <= 1
 0 <= z115 <= 1
 0 <= z116 <= 1
 0 <= z117 <= 1
 0 <= z118 <= 1
 0 <= z119 <= 1
 0 <= z1110 <= 1
      c12 Free
 0 <= z120 <= 1
 0 <= z121 <= 1
 0 <= z122 <= 1
 0 <= z123 <= 1
 0 <= z124 <= 1
 0 <= z125 <= 1
 0 <= z126 <= 1
 0 <= z127 <= 1
 0 <= z128 <= 1
 0 <= z129 <= 1
 0 <= z1210 <= 1
 0 <= z1211 <= 1
      c13 Free
 0 <= z130 <= 1
 0 <= z131 <= 1
 0 <= z132 <= 1
 0 <= z133 <= 1
 0 <= z134 <= 1
 0 <= z135 <= 1
 0 <= z136 <= 1
 0 <= z137 <= 1
 0 <= z138 <= 1
 0 <= z139 <= 1
 0 <= z1310 <= 1
 0 <= z1311 <= 1
 0 <= z1312 <= 1
      c14 Free
 0 <= z140 <= 1
 0 <= z141 <= 1
 0 <= z142 <= 1
 0 <= z143 <= 1
 0 <= z144 <= 1
 0 <= z145 <= 1
 0 <= z146 <= 1
 0 <= z147 <= 1
 0 <= z148 <= 1
 0 <= z149 <= 1
 0 <= z1410 <= 1
 0 <= z1411 <= 1
 0 <= z1412 <= 1
 0 <= z1413 <= 1
      c15 Free
 0 <= z150 <= 1
 0 <= z151 <= 1
 0 <= z152 <= 1
 0 <= z153 <= 1
 0 <= z154 <= 1
 0 <= z155 <= 1
 0 <= z156 <= 1
 0 <= z157 <= 1
 0 <= z158 <= 1
 0 <= z159 <= 1
 0 <= z1510 <= 1
 0 <= z1511 <= 1
 0 <= z1512 <= 1
 0 <= z1513 <= 1
 0 <= z1514 <= 1
      c16 Free
 0 <= z160 <= 1
 0 <= z161 <= 1
 0 <= z162 <= 1
 0 <= z163 <= 1
 0 <= z164 <= 1
 0 <= z165 <= 1
 0 <= z166 <= 1
 0 <= z167 <= 1
 0 <= z168 <= 1
 0 <= z169 <= 1
 0 <= z1610 <= 1
 0 <= z1611 <= 1
 0 <= z1612 <= 1
 0 <= z1613 <= 1
 0 <= z1614 <= 1
 0 <= z1615 <= 1
      c17 Free
 0 <= z170 <= 1
 0 <= z171 <= 1
 0 <= z172 <= 1
 0 <= z173 <= 1
 0 <= z174 <= 1
 0 <= z175 <= 1
 0 <= z176 <= 1
 0 <= z177 <= 1
 0 <= z178 <= 1
 0 <= z179 <= 1
 0 <= z1710 <= 1
 0 <= z1711 <= 1
 0 <= z1712 <= 1
 0 <= z1713 <= 1
 0 <= z1714 <= 1
 0 <= z1715 <= 1
 0 <= z1716 <= 1
      c18 Free
 0 <= z180 <= 1
 0 <= z181 <= 1
 0 <= z182 <= 1
 0 <= z183 <= 1
 0 <= z184 <= 1
 0 <= z185 <= 1
 0 <= z186 <= 1
 0 <= z187 <= 1
 0 <= z188 <= 1
 0 <= z189 <= 1
 0 <= z1810 <= 1
 0 <= z1811 <= 1
 0 <= z1812 <= 1
 0 <= z1813 <= 1
 0 <= z1814 <= 1
 0 <= z1815 <= 1
 0 <= z1816 <= 1
 0 <= z1817 <= 1
      c19 Free
 0 <= z190 <= 1
 0 <= z191 <= 1
 0 <= z192 <= 1
 0 <= z193 <= 1
 0 <= z194 <= 1
 0 <= z195 <= 1
 0 <= z196 <= 1
 0 <= z197 <= 1
 0 <= z198 <= 1
 0 <= z199 <= 1
 0 <= z1910 <= 1
 0 <= z1911 <= 1
 0 <= z1912 <= 1
 0 <= z1913 <= 1
 0 <= z1914 <= 1
 0 <= z1915 <= 1
 0 <= z1916 <= 1
 0 <= z1917 <= 1
 0 <= z1918 <= 1
      c20 Free
 0 <= z200 <= 1
 0 <= z201 <= 1
 0 <= z202 <= 1
 0 <= z203 <= 1
 0 <= z204 <= 1
 0 <= z205 <= 1
 0 <= z206 <= 1
 0 <= z207 <= 1
 0 <= z208 <= 1
 0 <= z209 <= 1
 0 <= z2010 <= 1
 0 <= z2011 <= 1
 0 <= z2012 <= 1
 0 <= z2013 <= 1
 0 <= z2014 <= 1
 0 <= z2015 <= 1
 0 <= z2016 <= 1
 0 <= z2017 <= 1
 0 <= z2018 <= 1
 0 <= z2019 <= 1
      c21 Free
 0 <= z210 <= 1
 0 <= z211 <= 1
 0 <= z212 <= 1
 0 <= z213 <= 1
 0 <= z214 <= 1
 0 <= z215 <= 1
 0 <= z216 <= 1
 0 <= z217 <= 1
 0 <= z218 <= 1
 0 <= z219 <= 1
 0 <= z2110 <= 1
 0 <= z2111 <= 1
 0 <= z2112 <= 1
 0 <= z2113 <= 1
 0 <= z2114 <= 1
 0 <= z2115 <= 1
 0 <= z2116 <= 1
 0 <= z2117 <= 1
 0 <= z2118 <= 1
 0 <= z2119 <= 1
 0 <= z2120 <= 1
      c22 Free
 0 <= z220 <= 1
 0 <= z221 <= 1
 0 <= z222 <= 1
 0 <= z223 <= 1
 0 <= z224 <= 1
 0 <= z225 <= 1
 0 <= z226 <= 1
 0 <= z227 <= 1
 0 <= z228 <= 1
 0 <= z229 <= 1
 0 <= z2210 <= 1
 0 <= z2211 <= 1
 0 <= z2212 <= 1
 0 <= z2213 <= 1
 0 <= z2214 <= 1
 0 <= z2215 <= 1
 0 <= z2216 <= 1
 0 <= z2217 <= 1
 0 <= z2218 <= 1
 0 <= z2219 <= 1
 0 <= z2220 <= 1
 0 <= z2221 <= 1
      c23 Free
 0 <= z230 <= 1
 0 <= z231 <= 1
 0 <= z232 <= 1
 0 <= z233 <= 1
 0 <= z234 <= 1
 0 <= z235 <= 1
 0 <= z236 <= 1
 0 <= z237 <= 1
 0 <= z238 <= 1
 0 <= z239 <= 1
 0 <= z2310 <= 1
 0 <= z2311 <= 1
 0 <= z2312 <= 1
 0 <= z2313 <= 1
 0 <= z2314 <= 1
 0 <= z2315 <= 1
 0 <= z2316 <= 1
 0 <= z2317 <= 1
 0 <= z2318 <= 1
 0 <= z2319 <= 1
 0 <= z2320 <= 1
 0 <= z2321 <= 1
 0 <= z2322 <= 1
      c24 Free
 0 <= z240 <= 1
 0 <= z241 <= 1
 0 <= z242 <= 1
 0 <= z243 <= 1
 0 <= z244 <= 1
 0 <= z245 <= 1
 0 <= z246 <= 1
 0 <= z247 <= 1
 0 <= z248 <= 1
 0 <= z249 <= 1
 0 <= z2410 <= 1
 0 <= z2411 <= 1
 0 <= z2412 <= 1
 0 <= z2413 <= 1
 0 <= z2414 <= 1
 0 <= z2415 <= 1
 0 <= z2416 <= 1
 0 <= z2417 <= 1
 0 <= z2418 <= 1
 0 <= z2419 <= 1
 0 <= z2420 <= 1
 0 <= z2421 <= 1
 0 <= z2422 <= 1
 0 <= z2423 <= 1
Binaries
 z10  z20  z21  z30  z31  z32  z40  z41  z42  z43  z50  z51  z52  z53  z54 
 z60  z61  z62  z63  z64  z65  z70  z71  z72  z73  z74  z75  z76  z80  z81 
 z82  z83  z84  z85  z86  z87  z90  z91  z92  z93  z94  z95  z96  z97  z98 
 z100  z101  z102  z103  z104  z105  z106  z107  z108  z109  z110  z111  z112 
 z113  z114  z115  z116  z117  z118  z119  z1110  z120  z121  z122  z123  z124 
 z125  z126  z127  z128  z129  z1210  z1211  z130  z131  z132  z133  z134 
 z135  z136  z137  z138  z139  z1310  z1311  z1312  z140  z141  z142  z143 
 z144  z145  z146  z147  z148  z149  z1410  z1411  z1412  z1413  z150  z151 
 z152  z153  z154  z155  z156  z157  z158  z159  z1510  z1511  z1512  z1513 
 z1514  z160  z161  z162  z163  z164  z165  z166  z167  z168  z169  z1610 
 z1611  z1612  z1613  z1614  z1615  z170  z171  z172  z173  z174  z175  z176 
 z177  z178  z179  z1710  z1711  z1712  z1713  z1714  z1715  z1716  z180  z181 
 z182  z183  z184  z185  z186  z187  z188  z189  z1810  z1811  z1812  z1813 
 z1814  z1815  z1816  z1817  z190  z191  z192  z193  z194  z195  z196  z197 
 z198  z199  z1910  z1911  z1912  z1913  z1914  z1915  z1916  z1917  z1918 
 z200  z201  z202  z203  z204  z205  z206  z207  z208  z209  z2010  z2011 
 z2012  z2013  z2014  z2015  z2016  z2017  z2018  z2019  z210  z211  z212 
 z213  z214  z215  z216  z217  z218  z219  z2110  z2111  z2112  z2113  z2114 
 z2115  z2116  z2117  z2118  z2119  z2120  z220  z221  z222  z223  z224  z225 
 z226  z227  z228  z229  z2210  z2211  z2212  z2213  z2214  z2215  z2216 
 z2217  z2218  z2219  z2220  z2221  z230  z231  z232  z233  z234  z235  z236 
 z237  z238  z239  z2310  z2311  z2312  z2313  z2314  z2315  z2316  z2317 
 z2318  z2319  z2320  z2321  z2322  z240  z241  z242  z243  z244  z245  z246 
 z247  z248  z249  z2410  z2411  z2412  z2413  z2414  z2415  z2416  z2417 
 z2418  z2419  z2420  z2421  z2422  z2423 
End
